166	32	4	146	
9	10	10	10

0	0	0	0	0	0	2	1	2
1	4	5	0	3	3	1	3
2	1	0	6	9	7	1	21
3	9	0	0	0	8	2	4	30
4	1	9	0	0	8	1	5
5	4	0	4	0	10	1	6
6	0	0	2	0	7	1	7
7	5	0	0	10	2	1	8
8	0	9	5	8	2	1	9
9	0	1	9	6	2	1	10
10	0	2	1	0	2	1	11
11	0	10	0	0	6	1	12
12	0	2	4	0	4	1	13
13	9	0	0	0	8	1	14
14	0	1	0	9	7	1	15
15	8	7	0	1	9	1	16
16	9	0	0	5	3	1	17
17	0	2	9	3	6	1	18
18	8	0	0	0	7	2	19	26
19	0	0	2	0	9	1	20
20	0	4	2	10	8	1	22
21	0	0	5	6	6	1	23
22	0	5	0	0	9	1	24
23	0	4	0	9	4	1	26
24	0	0	6	9	7	1	25
25	0	5	0	0	1	2	27	28
26	0	0	7	5	2	1	28
27	0	0	2	0	2	1	29
28	0	4	10	0	8	1	31
29	2	4	1	0	8	1	31
30	6	10	0	7	1	1	31
31	0	0	0	0	0	0
